outputs/knapsack64.output
CPLEX 12.9.0.0: optimal integer solution; objective 20074
13 MIP simplex iterations
0 branch-and-bound nodes
Select [*] :=
 0 1    6 0   12 1   18 1   24 0   30 1   36 1   42 1   48 0   54 0   60 1
 1 1    7 1   13 1   19 1   25 0   31 1   37 1   43 1   49 0   55 0   61 0
 2 1    8 1   14 0   20 1   26 1   32 1   38 1   44 1   50 0   56 1   62 0
 3 1    9 1   15 1   21 1   27 0   33 1   39 1   45 1   51 0   57 1   63 1
 4 1   10 1   16 0   22 1   28 1   34 0   40 1   46 0   52 1   58 1
 5 1   11 0   17 0   23 1   29 1   35 1   41 1   47 1   53 0   59 1
;

